% Número total de personas
n = 200;

% Número de opiniones posibles
m = 3;

% Distribución inicial de personas por opinión
p = [52, 6, 142];

% Valores de las opiniones
v = [351, 595, 897];

% Costos extras al mover a opiniones vacías
ce = [15230, 2758, 11631];

% Matriz de costos de mover de una opinión a otra
C = array2d(1..3, 1..3,
  [
    0,    4187,    3712,
    4176,    0,    2199,
    2242,    2573,    0
  ]);

% Costo total máximo permitido
C_max = 3820;

% Número máximo de movimientos permitidos
M_max = 9;
